(set-logic ALL)
(declare-const name String)
(assert (not (str.contains name "%")))
(assert (not (< (str.len name) 0)))
(assert (> (+ 0 (str.indexof name ":" 0)) 0))
(assert (not (< (+ 0 (str.indexof name ":" 0)) 0)))
(assert (not (= (str.substr name 0 (- (+ 0 (str.indexof name ":" 0)) 0)) "http")))
(assert (not (< (+ 0 (str.indexof name ":" 0)) 0)))
(assert (< 0 (str.len (str.substr name 0 (- (+ 0 (str.indexof name ":" 0)) 0)))))
(assert (< 1 (str.len (str.substr name 0 (- (+ 0 (str.indexof name ":" 0)) 0)))))
(assert (< 2 (str.len (str.substr name 0 (- (+ 0 (str.indexof name ":" 0)) 0)))))
(assert (< 3 (str.len (str.substr name 0 (- (+ 0 (str.indexof name ":" 0)) 0)))))
(assert (< 4 (str.len (str.substr name 0 (- (+ 0 (str.indexof name ":" 0)) 0)))))
(assert (< 5 (str.len (str.substr name 0 (- (+ 0 (str.indexof name ":" 0)) 0)))))
(assert (< 6 (str.len (str.substr name 0 (- (+ 0 (str.indexof name ":" 0)) 0)))))
(assert (< 7 (str.len (str.substr name 0 (- (+ 0 (str.indexof name ":" 0)) 0)))))
(assert (< 8 (str.len (str.substr name 0 (- (+ 0 (str.indexof name ":" 0)) 0)))))
(assert (< 9 (str.len (str.substr name 0 (- (+ 0 (str.indexof name ":" 0)) 0)))))
(assert (< 10 (str.len (str.substr name 0 (- (+ 0 (str.indexof name ":" 0)) 0)))))
(assert (not (< 11 (str.len (str.substr name 0 (- (+ 0 (str.indexof name ":" 0)) 0))))))
(assert (not (< (+ (+ 0 (str.indexof name ":" 0)) 1) 0)))
(assert (not (< (str.len name) 0)))
(assert (not (not (= (str.substr name (+ (+ 0 (str.indexof name ":" 0)) 1) (- (str.len name) (+ (+ 0 (str.indexof name ":" 0)) 1))) ""))))
(assert (not (< (+ 0 (str.indexof name ":" 0)) 0)))
(assert (= (str.substr (str.substr name (+ (+ 0 (str.indexof name ":" 0)) 1) (- (str.len name) (+ (+ 0 (str.indexof name ":" 0)) 1))) 0 (- 2 0)) "//"))
(check-sat)
(get-value (name))
